TCS_Benchmarks/redos_fix/regexlib1_output_distinct_4637_4636_1_0.smt2
(set-logic QF_S)
(declare-const x String)
(assert (str.in.re x (re.inter  (re.++ (re.+  (re.union  (str.to.re "\u{40}") (re.union  (str.to.re "\u{21}") (re.union  (str.to.re "\u{5d}") (re.union  (str.to.re "\u{23}") (re.union  (str.to.re "\u{24}") (re.union  (str.to.re "\u{29}") (re.union  (str.to.re "\u{26}") (re.union  (str.to.re "\u{28}") (re.union (re.range "\u{41}" "\u{5a}") (re.union  (str.to.re "\u{2a}") (re.union  (str.to.re "\u{2e}") (re.union  (str.to.re "\u{2b}") (re.union  (str.to.re "\u{2d}") (re.union  (str.to.re "\u{2f}") (re.union (re.range "\u{30}" "\u{39}") (re.union  (str.to.re "\u{7e}") (re.union  (str.to.re "\u{5f}")  (str.to.re "\u{5b}")))))))))))))))))) ) (re.+  (re.union  (str.to.re "\u{5d}") (re.union  (str.to.re "\u{2d}") (re.union  (str.to.re "\u{28}") (re.union  (str.to.re "\u{29}") (re.union (re.range "\u{30}" "\u{39}") (re.union  (str.to.re "\u{3d}") (re.union (re.range "\u{41}" "\u{5a}") (re.union  (str.to.re "\u{7e}") (re.union  (str.to.re "\u{5f}") (re.union  (str.to.re "\u{5b}")  (str.to.re "\u{2b}"))))))))))) ))  (re.++ (re.+  (re.union  (str.to.re "\u{40}") (re.union  (str.to.re "\u{21}") (re.union  (str.to.re "\u{5d}") (re.union  (str.to.re "\u{23}") (re.union  (str.to.re "\u{24}") (re.union  (str.to.re "\u{29}") (re.union  (str.to.re "\u{26}") (re.union  (str.to.re "\u{28}") (re.union (re.range "\u{41}" "\u{5a}") (re.union  (str.to.re "\u{2a}") (re.union  (str.to.re "\u{2e}") (re.union  (str.to.re "\u{2b}") (re.union  (str.to.re "\u{2d}") (re.union  (str.to.re "\u{2f}") (re.union (re.range "\u{30}" "\u{39}") (re.union  (str.to.re "\u{7e}") (re.union  (str.to.re "\u{5f}")  (str.to.re "\u{5b}")))))))))))))))))) ) (re.++  (str.to.re "\u{2f}") (re.+  (re.union  (str.to.re "\u{5d}") (re.union  (str.to.re "\u{2d}") (re.union  (str.to.re "\u{28}") (re.union  (str.to.re "\u{29}") (re.union (re.range "\u{30}" "\u{39}") (re.union  (str.to.re "\u{3d}") (re.union (re.range "\u{41}" "\u{5a}") (re.union  (str.to.re "\u{7e}") (re.union  (str.to.re "\u{5f}") (re.union  (str.to.re "\u{5b}")  (str.to.re "\u{2b}"))))))))))) ))) )))
(check-sat)
(get-model)