TCS_Benchmarks/redos_fix/regexlib1_output_distinct_4637_4636_1_0.txt
(([@!\]#$)\&\(A-Z\*.\+\-\/0-9~_\[])+)([\]\-()0-9=A-Z~_\[\+]+)
(([@!\]#$)\&\(A-Z\*.\+\-\/0-9~_\[])+)(\/)([\]\-()0-9=A-Z~_\[\+]+)